
Gurobi 12.0.0 (win64) logging started Wed May 13 21:45:12 2026

Set parameter LogFile to value "C:\Users\Asus\Documents\GitHub\internal-logistics-model2\internal-logistics-model2\results\SR_SV_RD\case2\result_SR_SV_RD_case2_P10_eps9999_2026_05_13_21_45.log"
Gurobi Optimizer version 12.0.0 build v12.0.0rc1 (win64 - Windows 10.0 (19045.2))

CPU model: 12th Gen Intel(R) Core(TM) i7-12650H, instruction set [SSE2|AVX|AVX2]
Thread count: 10 physical cores, 16 logical processors, using up to 16 threads

Non-default parameters:
TimeLimit  1200
MIPGap  0.01
Presolve  2

Optimize a model with 888 rows, 251 columns and 4213 nonzeros
Model fingerprint: 0xa3c8ff93
Variable types: 73 continuous, 178 integer (166 binary)
Coefficient statistics:
  Matrix range     [1e+00, 5e+02]
  Objective range  [1e-03, 1e+00]
  Bounds range     [1e+00, 5e+02]
  RHS range        [1e+00, 1e+04]
Presolve removed 379 rows and 106 columns
Presolve time: 0.02s
Presolved: 509 rows, 145 columns, 3237 nonzeros
Variable types: 31 continuous, 114 integer (102 binary)
Root relaxation presolve removed 1 rows and 0 columns
Root relaxation presolved: 508 rows, 145 columns, 3227 nonzeros


Root relaxation: objective 7.963728e+01, 187 iterations, 0.01 seconds (0.01 work units)

    Nodes    |    Current Node    |     Objective Bounds      |     Work
 Expl Unexpl |  Obj  Depth IntInf | Incumbent    BestBd   Gap | It/Node Time

     0     0   79.63728    0   32          -   79.63728      -     -    0s
H    0     0                     125.5580000   79.63728  36.6%     -    0s
H    0     0                     124.5730000   81.28241  34.8%     -    0s
     0     0   81.73638    0   36  124.57300   81.73638  34.4%     -    0s
H    0     0                     123.5890000   81.73638  33.9%     -    0s
H    0     0                     119.5330000   81.73638  31.6%     -    0s
     0     0   82.44314    0   41  119.53300   82.44314  31.0%     -    0s
H    0     0                     107.3870000   82.44314  23.2%     -    0s
     0     0   82.48518    0   42  107.38700   82.48518  23.2%     -    0s
     0     0   82.49505    0   42  107.38700   82.49505  23.2%     -    0s
H    0     0                     105.4070000   82.85870  21.4%     -    0s
     0     0   83.26143    0   43  105.40700   83.26143  21.0%     -    0s
     0     0   83.75285    0   44  105.40700   83.75285  20.5%     -    0s
     0     0   83.82075    0   43  105.40700   83.82075  20.5%     -    0s
     0     0   83.82075    0   43  105.40700   83.82075  20.5%     -    0s
     0     0   84.16760    0   29  105.40700   84.16760  20.1%     -    0s
     0     0   84.22600    0   39  105.40700   84.22600  20.1%     -    0s
     0     0   84.22600    0   39  105.40700   84.22600  20.1%     -    0s
     0     0   84.63800    0   39  105.40700   84.63800  19.7%     -    0s
     0     0   84.69500    0   39  105.40700   84.69500  19.6%     -    0s
     0     2   84.69500    0   39  105.40700   84.69500  19.6%     -    0s
H   36    60                     102.3750000   84.69500  17.3%  21.3    0s

Cutting planes:
  Learned: 21
  Gomory: 10
  Cover: 53
  Implied bound: 82
  Clique: 5
  MIR: 60
  StrongCG: 6
  Inf proof: 11
  Zero half: 2
  Mod-K: 1
  RLT: 10
  Relax-and-lift: 12
  PSD: 1

Explored 8765 nodes (99496 simplex iterations) in 0.71 seconds (0.80 work units)
Thread count was 16 (of 16 available processors)

Solution count 7: 102.375 105.407 107.387 ... 125.558

Optimal solution found (tolerance 1.00e-02)
Best objective 1.023750000000e+02, best bound 1.023750000000e+02, gap 0.0000%

Gurobi 12.0.0 (win64) logging started Wed May 13 21:45:46 2026

Set parameter LogFile to value "C:\Users\Asus\Documents\GitHub\internal-logistics-model2\internal-logistics-model2\results\SR_SV_RD\case2\result_SR_SV_RD_case2_P10_eps9999_2026_05_13_21_45.log"
Gurobi Optimizer version 12.0.0 build v12.0.0rc1 (win64 - Windows 10.0 (19045.2))

CPU model: 12th Gen Intel(R) Core(TM) i7-12650H, instruction set [SSE2|AVX|AVX2]
Thread count: 10 physical cores, 16 logical processors, using up to 16 threads

Non-default parameters:
TimeLimit  1200
MIPGap  0.01
Presolve  2

Optimize a model with 888 rows, 251 columns and 4213 nonzeros
Model fingerprint: 0xa3c8ff93
Variable types: 73 continuous, 178 integer (166 binary)
Coefficient statistics:
  Matrix range     [1e+00, 5e+02]
  Objective range  [1e-03, 1e+00]
  Bounds range     [1e+00, 5e+02]
  RHS range        [1e+00, 1e+04]
Presolve removed 379 rows and 106 columns
Presolve time: 0.01s
Presolved: 509 rows, 145 columns, 3237 nonzeros
Variable types: 31 continuous, 114 integer (102 binary)
Root relaxation presolve removed 1 rows and 0 columns
Root relaxation presolved: 508 rows, 145 columns, 3227 nonzeros


Root relaxation: objective 7.963728e+01, 187 iterations, 0.01 seconds (0.01 work units)

    Nodes    |    Current Node    |     Objective Bounds      |     Work
 Expl Unexpl |  Obj  Depth IntInf | Incumbent    BestBd   Gap | It/Node Time

     0     0   79.63728    0   32          -   79.63728      -     -    0s
H    0     0                     125.5580000   79.63728  36.6%     -    0s
H    0     0                     124.5730000   81.28241  34.8%     -    0s
     0     0   81.73638    0   36  124.57300   81.73638  34.4%     -    0s
H    0     0                     123.5890000   81.73638  33.9%     -    0s
H    0     0                     119.5330000   81.73638  31.6%     -    0s
     0     0   82.44314    0   41  119.53300   82.44314  31.0%     -    0s
H    0     0                     107.3870000   82.44314  23.2%     -    0s
     0     0   82.48518    0   42  107.38700   82.48518  23.2%     -    0s
     0     0   82.49505    0   42  107.38700   82.49505  23.2%     -    0s
H    0     0                     105.4070000   82.85870  21.4%     -    0s
     0     0   83.26143    0   43  105.40700   83.26143  21.0%     -    0s
     0     0   83.75285    0   44  105.40700   83.75285  20.5%     -    0s
     0     0   83.82075    0   43  105.40700   83.82075  20.5%     -    0s
     0     0   83.82075    0   43  105.40700   83.82075  20.5%     -    0s
     0     0   84.16760    0   29  105.40700   84.16760  20.1%     -    0s
     0     0   84.22600    0   39  105.40700   84.22600  20.1%     -    0s
     0     0   84.22600    0   39  105.40700   84.22600  20.1%     -    0s
     0     0   84.63800    0   39  105.40700   84.63800  19.7%     -    0s
     0     0   84.69500    0   39  105.40700   84.69500  19.6%     -    0s
     0     2   84.69500    0   39  105.40700   84.69500  19.6%     -    0s
H   36    60                     102.3750000   84.69500  17.3%  21.3    0s

Cutting planes:
  Learned: 21
  Gomory: 10
  Cover: 53
  Implied bound: 82
  Clique: 5
  MIR: 60
  StrongCG: 6
  Inf proof: 11
  Zero half: 2
  Mod-K: 1
  RLT: 10
  Relax-and-lift: 12
  PSD: 1

Explored 8765 nodes (99496 simplex iterations) in 0.71 seconds (0.80 work units)
Thread count was 16 (of 16 available processors)

Solution count 7: 102.375 105.407 107.387 ... 125.558

Optimal solution found (tolerance 1.00e-02)
Best objective 1.023750000000e+02, best bound 1.023750000000e+02, gap 0.0000%
